(set-logic QF_S)
(declare-fun var0 () String)
(declare-fun var1 () String)
(declare-fun var2 () String)
(declare-fun var3 () String)
(declare-fun var4 () String)
(declare-fun var5 () String)
(declare-fun var6 () String)
(declare-fun var7 () String)
(declare-fun var8 () String)
(declare-fun var9 () String)
(declare-fun var10 () String)
(declare-fun var11 () String)
(declare-fun var12 () String)
(declare-fun var13 () String)
(declare-fun var14 () String)
(declare-fun var15 () String)
(declare-fun var16 () String)
(declare-fun var17 () String)
(declare-fun var18 () String)
(declare-fun var19 () String)
(declare-fun var20 () String)
(declare-fun var21 () String)
(declare-fun var22 () String)
(declare-fun var23 () String)
(declare-fun var24 () String)
(declare-fun var25 () String)
(declare-fun var26 () String)
(declare-fun var27 () String)
(declare-fun var28 () String)
(declare-fun var29 () String)
(declare-fun var30 () String)
(declare-fun var31 () String)
(declare-fun var32 () String)
(declare-fun var33 () String)
(declare-fun var34 () String)
(declare-fun var35 () String)
(declare-fun var36 () String)
(declare-fun var37 () String)
(declare-fun var38 () String)
(declare-fun var39 () String)
(declare-fun var40 () String)
(declare-fun var41 () String)
(declare-fun var42 () String)
(declare-fun var43 () String)
(declare-fun var44 () String)
(declare-fun var45 () String)
(declare-fun var46 () String)
(declare-fun var47 () String)
(declare-fun var48 () String)
(declare-fun var49 () String)
(declare-fun var50 () String)
(declare-fun var51 () String)
(declare-fun var52 () String)
(declare-fun var53 () String)
(declare-fun var54 () String)
(declare-fun var55 () String)
(declare-fun var56 () String)
(declare-fun var57 () String)
(declare-fun var58 () String)
(declare-fun var59 () String)
(declare-fun var60 () String)
(assert (= var0 (Concat var1 var2)))
(assert (= var2 (Concat var3 var4)))
(assert (= var4 (Concat var5 var6)))
(assert (= var6 (Concat var7 var8)))
(assert (= var8 (Concat var9 var10)))
(assert (= var10 (Concat var11 var12)))
(assert (= var12 (Concat var13 var14)))
(assert (= var14 (Concat var15 var16)))
(assert (= var16 (Concat var17 var18)))
(assert (= var18 (Concat var19 var20)))
(assert (= var20 (Concat var21 var22)))
(assert (= var22 (Concat var23 var24)))
(assert (= var24 (Concat var25 var26)))
(assert (= var26 (Concat var27 var28)))
(assert (= var28 (Concat var29 var30)))
(assert (= var30 (Concat var31 var32)))
(assert (= var32 (Concat var33 var34)))
(assert (= var34 (Concat var35 var36)))
(assert (= var36 (Concat var37 var38)))
(assert (= var38 (Concat var39 var40)))
(assert (= var40 (Concat var41 var42)))
(assert (= var42 (Concat var43 var44)))
(assert (= var44 (Concat var45 var46)))
(assert (= var46 (Concat var47 var48)))
(assert (= var48 (Concat var49 var50)))
(assert (= var50 (Concat var51 var52)))
(assert (= var52 (Concat var53 var54)))
(assert (= var54 (Concat var55 var56)))
(assert (= var56 (Concat var57 var58)))
(assert (= var58 (Concat var59 var60)))
(assert (= var0 "solution"))
(assert (= "]" (CharAt var1 759)))
(assert (= "." (CharAt var3 891)))
(assert (= "*" (CharAt var26 432)))
(assert (= "y" (CharAt var25 87)))
(assert (= "b" (CharAt var47 127)))
(assert (= "x" (CharAt var52 690)))
(assert (= "W" (CharAt var28 90)))
(assert (= "," (CharAt var27 20)))
(assert (= "V" (CharAt var36 801)))
(assert (= "%" (CharAt var29 524)))
(assert (= "H" (CharAt var57 743)))
(assert (= "3" (CharAt var60 576)))
(assert (= "e" (CharAt var20 381)))
(assert (= "{" (CharAt var6 229)))
(assert (= ";" (CharAt var47 611)))
(assert (= "2" (CharAt var4 32)))
(assert (= "i" (CharAt var30 450)))
(assert (= "2" (CharAt var47 727)))
(assert (= ">" (CharAt var53 726)))
(assert (= "o" (CharAt var9 242)))
(assert (= "c" (CharAt var13 246)))
(assert (= "}" (CharAt var9 183)))
(assert (= "3" (CharAt var30 544)))
(assert (= "K" (CharAt var49 487)))
(assert (= "q" (CharAt var22 454)))
(assert (= "'" (CharAt var29 682)))
(assert (= "B" (CharAt var33 114)))
(assert (= "[" (CharAt var18 5)))
(assert (= "1" (CharAt var38 127)))
(assert (= "r" (CharAt var27 620)))
(assert (= "%" (CharAt var47 944)))
(assert (= "u" (CharAt var49 35)))
(assert (= "0" (CharAt var58 859)))
(assert (= ";" (CharAt var58 75)))
(assert (= "G" (CharAt var49 74)))
(assert (= "7" (CharAt var3 190)))
(assert (= "y" (CharAt var42 29)))
(assert (= "D" (CharAt var19 343)))
(assert (= "I" (CharAt var22 603)))
(assert (= "1" (CharAt var48 752)))
(assert (= ";" (CharAt var56 566)))
(assert (= "D" (CharAt var30 789)))
(assert (= "E" (CharAt var30 70)))
(assert (= "D" (CharAt var54 195)))
(assert (= "{" (CharAt var30 113)))
(assert (= "," (CharAt var12 10)))
(assert (= "x" (CharAt var58 509)))
(assert (= "$" (CharAt var50 522)))
(assert (= "&" (CharAt var4 143)))
(assert (= ">" (CharAt var38 486)))
(assert (= "}" (CharAt var60 670)))
(assert (= "'" (CharAt var31 325)))
(assert (= "$" (CharAt var19 201)))
(assert (= "g" (CharAt var16 331)))
(assert (= "^" (CharAt var39 820)))
(assert (= "y" (CharAt var35 460)))
(assert (= "p" (CharAt var36 803)))
(assert (= "V" (CharAt var32 430)))
(assert (= "`" (CharAt var14 649)))
(assert (= "w" (CharAt var37 814)))
(assert (= "D" (CharAt var20 505)))
(assert (= "4" (CharAt var45 456)))
(assert (= "l" (CharAt var1 431)))
(assert (= "P" (CharAt var21 688)))
(assert (= "3" (CharAt var22 567)))
(assert (= "/" (CharAt var60 574)))
(assert (= "K" (CharAt var13 658)))
(assert (= "B" (CharAt var17 784)))
(assert (= "+" (CharAt var14 8)))
(assert (= ":" (CharAt var13 101)))
(assert (= "T" (CharAt var36 165)))
(assert (= "K" (CharAt var32 462)))
(assert (= "0" (CharAt var36 908)))
(assert (= "T" (CharAt var23 730)))
(assert (= "S" (CharAt var50 532)))
(assert (= "b" (CharAt var54 290)))
(assert (= "p" (CharAt var6 813)))
(assert (= "/" (CharAt var9 616)))
(assert (= "." (CharAt var40 400)))
(assert (= "L" (CharAt var13 76)))
(assert (= "l" (CharAt var41 975)))
(assert (= "s" (CharAt var45 114)))
(assert (= "x" (CharAt var23 821)))
(assert (= "+" (CharAt var33 600)))
(assert (= "M" (CharAt var54 522)))
(assert (= "Q" (CharAt var22 619)))
(assert (= "C" (CharAt var18 404)))
(assert (= "Q" (CharAt var33 382)))
(assert (= "b" (CharAt var42 657)))
(assert (= "O" (CharAt var45 393)))
(assert (= "e" (CharAt var56 26)))
(assert (= ":" (CharAt var38 210)))
(assert (= "j" (CharAt var2 670)))
(assert (= "z" (CharAt var32 757)))
(assert (= "%" (CharAt var13 411)))
(assert (= "K" (CharAt var41 56)))
(assert (= "." (CharAt var40 498)))
(assert (= "5" (CharAt var22 903)))
(assert (= "H" (CharAt var20 463)))
(assert (= "Q" (CharAt var47 420)))
(assert (= "j" (CharAt var52 852)))
(assert (= "D" (CharAt var29 3)))
(assert (= "H" (CharAt var55 378)))
(assert (= "C" (CharAt var41 680)))
(assert (= "y" (CharAt var51 185)))
(assert (= "m" (CharAt var30 714)))
(assert (= "S" (CharAt var19 92)))
(assert (= "`" (CharAt var39 762)))
(assert (= "d" (CharAt var51 476)))
(assert (= "M" (CharAt var50 439)))
(assert (= "l" (CharAt var4 672)))
(assert (= "u" (CharAt var31 381)))
(assert (= "v" (CharAt var41 582)))
(assert (= "o" (CharAt var49 580)))
(assert (= "x" (CharAt var26 504)))
(assert (= "*" (CharAt var6 879)))
(assert (= "@" (CharAt var60 919)))
(assert (= "m" (CharAt var22 944)))
(assert (= "S" (CharAt var60 901)))
(assert (= "v" (CharAt var7 820)))
(assert (= "Y" (CharAt var37 77)))
(assert (= "E" (CharAt var13 891)))
(assert (= "r" (CharAt var7 911)))
(assert (= "6" (CharAt var27 389)))
(assert (= "I" (CharAt var18 848)))
(assert (= "1" (CharAt var47 822)))
(assert (= "o" (CharAt var2 994)))
(assert (= ")" (CharAt var55 574)))
(assert (= "S" (CharAt var31 877)))
(assert (= "z" (CharAt var45 414)))
(assert (= "E" (CharAt var12 207)))
(assert (= "." (CharAt var18 46)))
(assert (= "j" (CharAt var40 271)))
(assert (= "A" (CharAt var14 797)))
(assert (= "," (CharAt var50 438)))
(assert (= "m" (CharAt var23 967)))
(assert (= "j" (CharAt var10 27)))
(assert (= "U" (CharAt var49 109)))
(assert (= "K" (CharAt var41 571)))
(assert (= "t" (CharAt var16 364)))
(assert (= "=" (CharAt var16 71)))
(assert (= "1" (CharAt var11 387)))
(assert (= "+" (CharAt var46 788)))
(assert (= "g" (CharAt var45 530)))
(assert (= "O" (CharAt var18 32)))
(assert (= "j" (CharAt var11 73)))
(assert (= "2" (CharAt var8 902)))
(assert (= "w" (CharAt var36 348)))
(assert (= "{" (CharAt var3 160)))
(assert (= "U" (CharAt var32 510)))
(assert (= "L" (CharAt var33 471)))
(assert (= "@" (CharAt var33 495)))
(assert (= "s" (CharAt var19 4)))
(assert (= ":" (CharAt var11 895)))
(assert (= "n" (CharAt var52 472)))
(assert (= "%" (CharAt var29 785)))
(assert (= "-" (CharAt var5 854)))
(assert (= "w" (CharAt var22 220)))
(assert (= "b" (CharAt var35 854)))
(assert (= "K" (CharAt var19 894)))
(assert (= "H" (CharAt var36 135)))
(assert (= "#" (CharAt var6 198)))
(assert (= "\\" (CharAt var50 711)))
(assert (= "q" (CharAt var55 515)))
(assert (= "\\" (CharAt var12 497)))
(assert (= "J" (CharAt var52 473)))
(assert (= "h" (CharAt var22 245)))
(assert (= "u" (CharAt var8 976)))
(assert (= "z" (CharAt var26 984)))
(assert (= "J" (CharAt var38 256)))
(assert (= "h" (CharAt var50 954)))
(assert (= "e" (CharAt var26 326)))
(assert (= "X" (CharAt var28 290)))
(assert (= "/" (CharAt var56 562)))
(assert (= "1" (CharAt var57 487)))
(assert (= "a" (CharAt var28 134)))
(assert (= "|" (CharAt var29 825)))
(assert (= "$" (CharAt var7 415)))
(assert (= "i" (CharAt var16 939)))
(assert (= "w" (CharAt var38 495)))
(assert (= "O" (CharAt var36 267)))
(assert (= "p" (CharAt var54 523)))
(assert (= "T" (CharAt var16 431)))
(assert (= "2" (CharAt var55 610)))
(assert (= "3" (CharAt var55 874)))
(assert (= "(" (CharAt var8 749)))
(assert (= "8" (CharAt var36 343)))
(assert (= "9" (CharAt var36 477)))
(assert (= "v" (CharAt var18 867)))
(assert (= "o" (CharAt var58 280)))
(assert (= "G" (CharAt var49 822)))
(assert (= "=" (CharAt var39 878)))
(assert (= "7" (CharAt var54 156)))
(assert (= "+" (CharAt var50 58)))
(assert (= "-" (CharAt var59 705)))
(assert (= "q" (CharAt var7 100)))
(assert (= "q" (CharAt var59 547)))
(assert (= "R" (CharAt var59 273)))
(assert (= "]" (CharAt var35 983)))
(assert (= "z" (CharAt var4 418)))
(assert (= "J" (CharAt var24 532)))
(assert (= "5" (CharAt var42 413)))
(assert (= "_" (CharAt var38 870)))
(assert (= "B" (CharAt var37 385)))
(assert (= "x" (CharAt var21 732)))
(assert (= "C" (CharAt var38 230)))
(assert (= "W" (CharAt var57 553)))
(assert (= "L" (CharAt var44 666)))
(assert (= "H" (CharAt var27 62)))
(assert (= "N" (CharAt var59 528)))
(assert (= "i" (CharAt var33 738)))
(assert (= "r" (CharAt var60 391)))
(assert (= "x" (CharAt var27 758)))
(assert (= "C" (CharAt var0 70)))
(assert (= "[" (CharAt var34 665)))
(assert (= "\"" (CharAt var19 229)))
(assert (= "L" (CharAt var11 240)))
(assert (= "Q" (CharAt var16 776)))
(assert (= "~" (CharAt var5 228)))
(assert (= "d" (CharAt var47 900)))
(assert (= "c" (CharAt var50 45)))
(assert (= "a" (CharAt var19 855)))
(assert (= "5" (CharAt var35 29)))
(assert (= "F" (CharAt var28 787)))
(assert (= "A" (CharAt var5 50)))
(assert (= ":" (CharAt var1 73)))
(assert (= "O" (CharAt var54 967)))
(assert (= "/" (CharAt var17 356)))
(assert (= ")" (CharAt var50 735)))
(assert (= "#" (CharAt var45 495)))
(assert (= "N" (CharAt var39 828)))
(assert (= "-" (CharAt var51 329)))
(assert (= ")" (CharAt var15 330)))
(assert (= "-" (CharAt var44 939)))
(assert (= "I" (CharAt var43 496)))
(assert (= "@" (CharAt var58 415)))
(assert (= "G" (CharAt var33 209)))
(assert (= "Q" (CharAt var53 97)))
(assert (= "m" (CharAt var58 435)))
(assert (= "a" (CharAt var38 159)))
(assert (= "T" (CharAt var7 63)))
(assert (= "\"" (CharAt var16 582)))
(assert (= "|" (CharAt var5 423)))
(assert (= "\\" (CharAt var21 156)))
(assert (= "!" (CharAt var44 74)))
(assert (= "X" (CharAt var31 285)))
(assert (= "&" (CharAt var28 221)))
(assert (= "e" (CharAt var34 223)))
(assert (= "+" (CharAt var3 828)))
(assert (= ")" (CharAt var16 973)))
(assert (= "P" (CharAt var38 359)))
(assert (= "A" (CharAt var19 275)))
(assert (= "}" (CharAt var5 665)))
(assert (= "x" (CharAt var1 968)))
(assert (= "R" (CharAt var31 201)))
(assert (= ")" (CharAt var35 404)))
(assert (= "(" (CharAt var16 786)))
(assert (= "`" (CharAt var11 676)))
(assert (= "[" (CharAt var3 889)))
(assert (= "%" (CharAt var58 829)))
(assert (= "-" (CharAt var47 634)))
(assert (= "0" (CharAt var35 767)))
(assert (= "Z" (CharAt var54 983)))
(assert (= "2" (CharAt var1 26)))
(assert (= "r" (CharAt var36 371)))
(assert (= "S" (CharAt var5 603)))
(assert (= "W" (CharAt var18 454)))
(assert (= "h" (CharAt var2 115)))
(assert (= "B" (CharAt var52 111)))
(assert (= "F" (CharAt var1 442)))
(assert (= "5" (CharAt var35 562)))
(assert (= "b" (CharAt var53 328)))
(assert (= "f" (CharAt var17 185)))
(assert (= "7" (CharAt var42 160)))
(assert (= "A" (CharAt var54 351)))
(assert (= "k" (CharAt var11 48)))
(assert (= "{" (CharAt var45 591)))
(assert (= ":" (CharAt var48 411)))
(assert (= "^" (CharAt var49 954)))
(assert (= "?" (CharAt var8 555)))
(assert (= "u" (CharAt var47 819)))
(assert (= "C" (CharAt var25 770)))
(assert (= "-" (CharAt var21 314)))
(assert (= "{" (CharAt var30 443)))
(assert (= "[" (CharAt var39 188)))
(assert (= "/" (CharAt var18 309)))
(assert (= "@" (CharAt var54 703)))
(assert (= "." (CharAt var10 256)))
(assert (= "N" (CharAt var19 47)))
(assert (= "s" (CharAt var42 458)))
(assert (= "{" (CharAt var22 266)))
(assert (= "\"" (CharAt var11 43)))
(assert (= "T" (CharAt var48 905)))
(assert (= "?" (CharAt var6 207)))
(assert (= "B" (CharAt var8 897)))
(assert (= "X" (CharAt var2 832)))
(assert (= "i" (CharAt var52 572)))
(assert (= "e" (CharAt var60 222)))
(assert (= "-" (CharAt var40 415)))
(assert (= ">" (CharAt var5 97)))
(assert (= "(" (CharAt var57 127)))
(assert (= "s" (CharAt var29 835)))
(assert (= "C" (CharAt var25 714)))
(assert (= "S" (CharAt var10 457)))
(assert (= "3" (CharAt var60 898)))
(assert (= "`" (CharAt var26 255)))
(assert (= "\"" (CharAt var39 135)))
(assert (= ">" (CharAt var8 663)))
(assert (= "p" (CharAt var13 499)))
(assert (= "9" (CharAt var8 721)))
(assert (= "/" (CharAt var17 111)))
(assert (= "2" (CharAt var40 998)))
(assert (= "P" (CharAt var0 184)))
(assert (= "R" (CharAt var4 810)))
(assert (= "(" (CharAt var56 791)))
(assert (= "P" (CharAt var19 684)))
(assert (= "[" (CharAt var10 747)))
(assert (= "K" (CharAt var32 331)))
(assert (= "x" (CharAt var34 648)))
(assert (= "f" (CharAt var18 210)))
(assert (= "e" (CharAt var33 439)))
(assert (= "p" (CharAt var24 356)))
(assert (= "r" (CharAt var11 256)))
(assert (= "P" (CharAt var5 814)))
(assert (= "w" (CharAt var31 955)))
(assert (= "|" (CharAt var4 524)))
(assert (= "a" (CharAt var28 800)))
(assert (= "]" (CharAt var17 804)))
(assert (= "4" (CharAt var1 265)))
(assert (= "1" (CharAt var12 775)))
(assert (= "@" (CharAt var34 605)))
(assert (= "x" (CharAt var32 179)))
(assert (= "j" (CharAt var0 211)))
(assert (= "v" (CharAt var13 844)))
(assert (= "O" (CharAt var6 103)))
(assert (= "'" (CharAt var42 439)))
(assert (= "Y" (CharAt var49 431)))
(assert (= "1" (CharAt var45 14)))
(assert (= "~" (CharAt var36 946)))
(assert (= "/" (CharAt var10 91)))
(assert (= "Q" (CharAt var49 609)))
(assert (= "(" (CharAt var37 806)))
(assert (= "G" (CharAt var41 661)))
(assert (= "z" (CharAt var0 481)))
(assert (= "4" (CharAt var17 69)))
(assert (= "F" (CharAt var18 957)))
(assert (= "6" (CharAt var59 319)))
(assert (= "k" (CharAt var6 993)))
(assert (= "'" (CharAt var7 22)))
(assert (= "}" (CharAt var38 805)))
(assert (= "." (CharAt var17 381)))
(assert (= "v" (CharAt var56 164)))
(assert (= "Q" (CharAt var39 710)))
(assert (= "m" (CharAt var40 76)))
(assert (= "@" (CharAt var42 921)))
(assert (= "`" (CharAt var8 402)))
(assert (= "7" (CharAt var44 695)))
(assert (= "*" (CharAt var13 850)))
(assert (= "w" (CharAt var56 788)))
(assert (= "+" (CharAt var41 504)))
(assert (= "\\" (CharAt var37 401)))
(assert (= "D" (CharAt var46 619)))
(assert (= "3" (CharAt var44 155)))
(assert (= "}" (CharAt var27 266)))
(assert (= "}" (CharAt var49 902)))
(assert (= "3" (CharAt var35 131)))
(assert (= "+" (CharAt var31 897)))
(assert (= "5" (CharAt var13 321)))
(assert (= "E" (CharAt var60 957)))
(assert (= "m" (CharAt var58 531)))
(assert (= "u" (CharAt var18 683)))
(assert (= "j" (CharAt var54 992)))
(assert (= "," (CharAt var30 872)))
(assert (= "#" (CharAt var21 428)))
(assert (= "\"" (CharAt var60 126)))
(assert (= "S" (CharAt var44 974)))
(assert (= "|" (CharAt var49 891)))
(assert (= "`" (CharAt var5 827)))
(assert (= "z" (CharAt var55 298)))
(assert (= ";" (CharAt var13 62)))
(assert (= "b" (CharAt var52 578)))
(assert (= "6" (CharAt var12 302)))
(assert (= "4" (CharAt var16 29)))
(assert (= "i" (CharAt var30 643)))
(assert (= "x" (CharAt var22 693)))
(assert (= "R" (CharAt var27 50)))
(assert (= "q" (CharAt var36 284)))
(assert (= "e" (CharAt var9 796)))
(assert (= "k" (CharAt var29 367)))
(assert (= "h" (CharAt var44 368)))
(assert (= "6" (CharAt var23 836)))
(assert (= "." (CharAt var23 996)))
(assert (= "w" (CharAt var57 663)))
(assert (= "6" (CharAt var4 544)))
(assert (= "S" (CharAt var52 779)))
(assert (= "-" (CharAt var26 136)))
(assert (= "?" (CharAt var33 952)))
(assert (= "\\" (CharAt var51 591)))
(assert (= "d" (CharAt var21 553)))
(assert (= "z" (CharAt var29 770)))
(assert (= "<" (CharAt var28 951)))
(assert (= "f" (CharAt var34 720)))
(assert (= "l" (CharAt var53 898)))
(assert (= "." (CharAt var10 472)))
(assert (= "d" (CharAt var59 849)))
(assert (= "@" (CharAt var53 277)))
(assert (= "i" (CharAt var32 257)))
(assert (= ")" (CharAt var60 93)))
(assert (= "B" (CharAt var51 526)))
(assert (= "=" (CharAt var59 884)))
(assert (= "j" (CharAt var32 606)))
(assert (= "^" (CharAt var45 199)))
(assert (= "t" (CharAt var28 225)))
(assert (= "Z" (CharAt var26 714)))
(assert (= "u" (CharAt var17 160)))
(assert (= "E" (CharAt var3 721)))
(assert (= "W" (CharAt var46 834)))
(assert (= "k" (CharAt var29 134)))
(assert (= "i" (CharAt var32 961)))
(assert (= "8" (CharAt var34 112)))
(assert (= "+" (CharAt var41 609)))
(assert (= "z" (CharAt var58 444)))
(assert (= "n" (CharAt var11 417)))
(assert (= "0" (CharAt var43 234)))
(assert (= "0" (CharAt var27 428)))
(assert (= "z" (CharAt var27 895)))
(assert (= "F" (CharAt var3 110)))
(assert (= "2" (CharAt var44 662)))
(assert (= "\\" (CharAt var23 447)))
(assert (= "a" (CharAt var35 771)))
(assert (= ":" (CharAt var4 219)))
(assert (= "=" (CharAt var13 778)))
(assert (= "," (CharAt var53 392)))
(assert (= ">" (CharAt var23 725)))
(assert (= "e" (CharAt var47 972)))
(assert (= "e" (CharAt var8 34)))
(assert (= "}" (CharAt var32 212)))
(assert (= "C" (CharAt var55 782)))
(assert (= "x" (CharAt var38 551)))
(assert (= "h" (CharAt var44 966)))
(assert (= "6" (CharAt var56 20)))
(assert (= "N" (CharAt var10 691)))
(assert (= "d" (CharAt var29 221)))
(assert (= "m" (CharAt var55 807)))
(assert (= "l" (CharAt var0 963)))
(assert (= "]" (CharAt var58 894)))
(assert (= "D" (CharAt var42 99)))
(assert (= "C" (CharAt var3 500)))
(assert (= "T" (CharAt var13 690)))
(assert (= "." (CharAt var50 894)))
(assert (= "J" (CharAt var40 636)))
(assert (= ":" (CharAt var25 875)))
(assert (= "h" (CharAt var46 962)))
(assert (= "R" (CharAt var44 341)))
(assert (= ">" (CharAt var46 582)))
(assert (= "." (CharAt var19 390)))
(assert (= ";" (CharAt var20 431)))
(assert (= "y" (CharAt var9 190)))
(assert (= "x" (CharAt var42 868)))
(assert (= "\\" (CharAt var59 941)))
(assert (= "-" (CharAt var44 580)))
(assert (= "-" (CharAt var34 309)))
(assert (= "O" (CharAt var59 925)))
(assert (= "Z" (CharAt var47 265)))
(assert (= "t" (CharAt var2 788)))
(assert (= "r" (CharAt var50 913)))
(assert (= "'" (CharAt var28 499)))
(assert (= "T" (CharAt var15 436)))
(assert (= "*" (CharAt var17 676)))
(assert (= "D" (CharAt var30 812)))
(assert (= "H" (CharAt var17 187)))
(assert (= "z" (CharAt var16 628)))
(assert (= "/" (CharAt var3 57)))
(assert (= "q" (CharAt var21 760)))
(assert (= "k" (CharAt var25 760)))
(assert (= "B" (CharAt var13 219)))
(assert (= "L" (CharAt var20 573)))
(assert (= "v" (CharAt var16 492)))
(assert (= "9" (CharAt var1 850)))
(assert (= "0" (CharAt var47 978)))
(assert (= "4" (CharAt var56 159)))
(assert (= "j" (CharAt var39 175)))
(assert (= "E" (CharAt var43 686)))
(assert (= "n" (CharAt var16 953)))
(assert (= "'" (CharAt var0 500)))
(assert (= "\\" (CharAt var17 722)))
(assert (= "/" (CharAt var59 688)))
(assert (= "V" (CharAt var45 633)))
(assert (= ";" (CharAt var9 645)))
(assert (= "&" (CharAt var53 843)))
(assert (= "s" (CharAt var28 722)))
(assert (= "o" (CharAt var50 367)))
(assert (= "3" (CharAt var50 368)))
(assert (= "X" (CharAt var28 587)))
(assert (= "0" (CharAt var15 240)))
(assert (= "B" (CharAt var15 48)))
(assert (= "i" (CharAt var47 771)))
(assert (= "P" (CharAt var20 385)))
(assert (= "2" (CharAt var7 553)))
(assert (= "w" (CharAt var6 225)))
(assert (= "b" (CharAt var39 160)))
(assert (= "_" (CharAt var46 784)))
(assert (= "7" (CharAt var29 70)))
(assert (= "N" (CharAt var0 980)))
(assert (= "D" (CharAt var42 882)))
(assert (= "W" (CharAt var1 707)))
(assert (= "{" (CharAt var58 696)))
(assert (= "u" (CharAt var48 400)))
(assert (= "3" (CharAt var49 652)))
(assert (= "1" (CharAt var29 698)))
(assert (= "(" (CharAt var5 186)))
(assert (= "K" (CharAt var34 886)))
(assert (= "P" (CharAt var28 32)))
(assert (= "P" (CharAt var31 782)))
(assert (= "B" (CharAt var9 959)))
(assert (= "8" (CharAt var43 742)))
(assert (= "Y" (CharAt var57 693)))
(assert (= "`" (CharAt var0 287)))
(assert (= "x" (CharAt var51 169)))
(assert (= "2" (CharAt var4 780)))
(assert (= "J" (CharAt var6 695)))
(check-sat)